12895 3792
22867 24147
9701 25500
9859 58260
48187 60447
58884 53011
10336 12855
4275 10934
60748 3113
11725 34173
25250 21082
3052 49983
34691 21242
55561 31578
58157 42125
11816 24556
63037 31679
3644 7562
63480 44951
52285 25240
20977 54593
17409 15729
18378 53438
40612 53388
48643 20494
62345 46517
49368 61620
58354 52541
25868 57330
60830 25388
32343 10263
53728 52232
4155 64712
11246 51790
30699 32507
13982 21764
62012 27871
16222 52187
14763 9667
54882 41923
41303 42586
27416 29553
